NAME : instances/clustered-mixed-tsp/instance-1.tsp
COMMENT : No Comment
TYPE : TSP
DIMENSION: 54
EDGE_WEIGHT_TYPE : EUC_2D
NODE_COORD_SECTION
1 443 611 
2 367 630 
3 173 473 
4 557 292 
5 443 592 
6 958 938 
7 147 227 
8 557 349 
9 233 63 
10 252 44 
11 901 919 
12 519 311 
13 557 406 
14 176 6 
15 544 161 
16 500 406 
17 176 63 
18 157 -13 
19 996 881 
20 424 554 
21 563 123 
22 386 535 
23 424 573 
24 195 -13 
25 538 292 
26 538 368 
27 557 330 
28 233 25 
29 214 -32 
30 901 900 
31 192 473 
32 214 44 
33 462 516 
34 563 142 
35 176 -32 
36 601 47 
37 176 25 
38 595 311 
39 582 47 
40 443 630 
41 443 573 
42 157 6 
43 386 573 
44 939 843 
45 462 592 
46 287 435 
47 538 406 
48 138 25 
49 958 881 
50 268 511 
51 519 330 
52 211 416 
53 386 516 
54 500 368 
EOF
